12      4       
12      13      11      15      
0       0       0       0       0       4       2       3       4       5       
5       3       7       3       8       2       8       11      
4       3       3       2       10      1       10      
6       7       8       3       7       2       6       8       
7       4       3       7       4       1       7       
7       10      3       1       1       1       11      
6       3       7       10      2       2       9       10      
2       5       9       3       1       1       12      
1       2       1       4       6       1       12      
10      8       10      4       9       1       12      
1       2       2       2       9       1       12      
0       0       0       0       0       0       
